50
100
100
99
98
97
97
94
92
91
91
90
88
87
85
81
81
80
79
72
70
67
67
66
64
63
61
59
58
56
55
51
50
50
50
49
46
41
39
39
38
30
30
24
22
21
20
19
14
8
7
5
